p cnf 86 473
-86 0
-86 -85 -43 0
-86 -79 -36 0
-86 -79 -36 -1 0
-86 -79 -1 0
-86 -76 0
-86 -53 0
-86 -50 -43 0
-86 -50 -43 -8 0
-86 -50 -8 0
-86 -44 -1 0
-86 -43 0
-86 -1 0
-85 0
-85 -84 -42 0
-85 -78 -43 0
-85 -78 -43 -35 0
-85 -78 -35 0
-85 -75 0
-85 -52 0
-85 -49 -42 0
-85 -49 -42 -7 0
-85 -49 -7 0
-85 -43 0
-85 -42 0
-84 0
-84 -83 -41 0
-84 -77 -42 0
-84 -77 -42 -34 0
-84 -77 -34 0
-84 -74 0
-84 -51 0
-84 -48 -41 0
-84 -48 -41 -6 0
-84 -48 -6 0
-84 -42 0
-84 -41 0
-83 0
-83 -82 -40 0
-83 -76 -41 0
-83 -76 -41 -33 0
-83 -76 -33 0
-83 -73 0
-83 -50 0
-83 -47 -40 0
-83 -47 -40 -5 0
-83 -47 -5 0
-83 -41 0
-83 -40 0
-82 0
-82 -81 -39 0
-82 -75 -40 0
-82 -75 -40 -32 0
-82 -75 -32 0
-82 -72 0
-82 -49 0
-82 -46 -39 0
-82 -46 -39 -4 0
-82 -46 -4 0
-82 -40 0
-82 -39 0
-81 0
-81 -80 -38 0
-81 -74 -39 0
-81 -74 -39 -31 0
-81 -74 -31 0
-81 -71 0
-81 -48 0
-81 -45 -38 0
-81 -45 -38 -3 0
-81 -45 -3 0
-81 -39 0
-81 -38 0
-80 0
-80 -79 -37 0
-80 -73 -38 0
-80 -73 -38 -30 0
-80 -73 -30 0
-80 -70 0
-80 -47 0
-80 -44 -37 0
-80 -44 -37 -2 0
-80 -44 -2 0
-80 -38 0
-80 -37 0
-79 0
-79 -78 -36 0
-79 -72 -37 0
-79 -72 -37 -29 0
-79 -72 -29 0
-79 -69 0
-79 -46 0
-79 -37 0
-79 -36 0
-78 0
-78 -77 -35 0
-78 -71 -36 0
-78 -71 -36 -28 0
-78 -71 -28 0
-78 -68 0
-78 -45 0
-78 -36 0
-78 -35 0
-77 0
-77 -76 -34 0
-77 -70 -35 0
-77 -70 -35 -27 0
-77 -70 -27 0
-77 -67 0
-77 -44 0
-77 -35 0
-77 -34 0
-76 0
-76 -75 -33 0
-76 -69 -34 0
-76 -69 -34 -26 0
-76 -69 -26 0
-76 -66 0
-76 -34 0
-76 -33 0
-75 0
-75 -74 -32 0
-75 -68 -33 0
-75 -68 -33 -25 0
-75 -68 -25 0
-75 -65 0
-75 -33 0
-75 -32 0
-74 0
-74 -73 -31 0
-74 -67 -32 0
-74 -67 -32 -24 0
-74 -67 -24 0
-74 -64 0
-74 -32 0
-74 -31 0
-73 0
-73 -72 -30 0
-73 -66 -31 0
-73 -66 -31 -23 0
-73 -66 -23 0
-73 -63 0
-73 -31 0
-73 -30 0
-72 0
-72 -71 -29 0
-72 -65 -30 0
-72 -65 -30 -22 0
-72 -65 -22 0
-72 -62 0
-72 -30 0
-72 -29 0
-71 0
-71 -70 -28 0
-71 -64 -29 0
-71 -64 -29 -21 0
-71 -64 -21 0
-71 -61 0
-71 -29 0
-71 -28 0
-70 0
-70 -69 -27 0
-70 -63 -28 0
-70 -63 -28 -20 0
-70 -63 -20 0
-70 -60 0
-70 -28 0
-70 -27 0
-69 0
-69 -68 -26 0
-69 -62 -27 0
-69 -62 -27 -19 0
-69 -62 -19 0
-69 -59 0
-69 -27 0
-69 -26 0
-68 0
-68 -67 -25 0
-68 -61 -26 0
-68 -61 -26 -18 0
-68 -61 -18 0
-68 -58 0
-68 -26 0
-68 -25 0
-67 0
-67 -66 -24 0
-67 -60 -25 0
-67 -60 -25 -17 0
-67 -60 -17 0
-67 -57 0
-67 -25 0
-67 -24 0
-66 0
-66 -65 -23 0
-66 -59 -24 0
-66 -59 -24 -16 0
-66 -59 -16 0
-66 -56 0
-66 -24 0
-66 -23 0
-65 0
-65 -64 -22 0
-65 -58 -23 0
-65 -58 -23 -15 0
-65 -58 -15 0
-65 -55 0
-65 -23 0
-65 -22 0
-64 0
-64 -63 -21 0
-64 -57 -22 0
-64 -57 -22 -14 0
-64 -57 -14 0
-64 -54 0
-64 -22 0
-64 -21 0
-63 0
-63 -62 -20 0
-63 -56 -21 0
-63 -56 -21 -13 0
-63 -56 -13 0
-63 -53 0
-63 -21 0
-63 -20 0
-62 0
-62 -61 -19 0
-62 -55 -20 0
-62 -55 -20 -12 0
-62 -55 -12 0
-62 -52 0
-62 -20 0
-62 -19 0
-61 0
-61 -60 -18 0
-61 -54 -19 0
-61 -54 -19 -11 0
-61 -54 -11 0
-61 -51 0
-61 -19 0
-61 -18 0
-60 0
-60 -59 -17 0
-60 -53 -18 0
-60 -53 -18 -10 0
-60 -53 -10 0
-60 -50 0
-60 -18 0
-60 -17 0
-59 0
-59 -58 -16 0
-59 -52 -17 0
-59 -52 -17 -9 0
-59 -52 -9 0
-59 -49 0
-59 -17 0
-59 -16 0
-58 0
-58 -57 -15 0
-58 -51 -16 0
-58 -51 -16 -8 0
-58 -51 -8 0
-58 -48 0
-58 -16 0
-58 -15 0
-57 0
-57 -56 -14 0
-57 -50 -15 0
-57 -50 -15 -7 0
-57 -50 -7 0
-57 -47 0
-57 -15 0
-57 -14 0
-56 0
-56 -55 -13 0
-56 -49 -14 0
-56 -49 -14 -6 0
-56 -49 -6 0
-56 -46 0
-56 -14 0
-56 -13 0
-55 0
-55 -54 -12 0
-55 -48 -13 0
-55 -48 -13 -5 0
-55 -48 -5 0
-55 -45 0
-55 -13 0
-55 -12 0
-54 0
-54 -53 -11 0
-54 -47 -12 0
-54 -47 -12 -4 0
-54 -47 -4 0
-54 -44 0
-54 -12 0
-54 -11 0
-53 0
-53 -52 -10 0
-53 -46 -11 0
-53 -46 -11 -3 0
-53 -46 -3 0
-53 -11 0
-53 -10 0
-52 0
-52 -51 -9 0
-52 -45 -10 0
-52 -45 -10 -2 0
-52 -45 -2 0
-52 -10 0
-52 -9 0
-51 0
-51 -50 -8 0
-51 -44 -9 0
-51 -44 -9 -1 0
-51 -44 -1 0
-51 -9 0
-51 -8 0
-50 0
-50 -49 -7 0
-50 -8 0
-50 -7 0
-49 0
-49 -48 -6 0
-49 -7 0
-49 -6 0
-48 0
-48 -47 -5 0
-48 -6 0
-48 -5 0
-47 0
-47 -46 -4 0
-47 -5 0
-47 -4 0
-46 0
-46 -45 -3 0
-46 -4 0
-46 -3 0
-45 0
-45 -44 -2 0
-45 -3 0
-45 -2 0
-44 0
-44 -2 0
-44 -1 0
-43 -40 -37 0
-43 -40 -3 0
-43 -6 -3 0
-42 -39 -36 0
-42 -39 -2 0
-42 -5 -2 0
-41 -38 -35 0
-41 -38 -1 0
-41 -4 -1 0
-40 -37 -34 0
-39 -36 -33 0
-38 -35 -32 0
-37 -34 -31 0
-36 -33 -30 0
-35 -32 -29 0
-34 -31 -28 0
-33 -30 -27 0
-32 -29 -26 0
-31 -28 -25 0
-30 -27 -24 0
-29 -26 -23 0
-28 -25 -22 0
-27 -24 -21 0
-26 -23 -20 0
-25 -22 -19 0
-24 -21 -18 0
-23 -20 -17 0
-22 -19 -16 0
-21 -18 -15 0
-20 -17 -14 0
-19 -16 -13 0
-18 -15 -12 0
-17 -14 -11 0
-16 -13 -10 0
-15 -12 -9 0
-14 -11 -8 0
-13 -10 -7 0
-12 -9 -6 0
-11 -8 -5 0
-10 -7 -4 0
-9 -6 -3 0
-8 -5 -2 0
-7 -4 -1 0
1 14 50 0
1 20 0
1 25 0
1 31 80 0
2 15 51 0
2 21 0
2 26 0
2 32 81 0
3 16 52 0
3 22 0
3 27 0
3 33 82 0
4 17 53 0
4 23 0
4 28 0
4 34 83 0
5 18 54 0
5 24 0
5 29 0
5 35 84 0
6 19 55 0
6 25 0
6 30 0
6 36 85 0
7 20 56 0
7 26 0
7 31 0
7 37 86 0
8 21 57 0
8 27 0
8 32 0
8 38 44 0
9 22 58 0
9 28 0
9 33 0
9 39 45 0
10 23 59 0
10 29 0
10 34 0
10 40 46 0
11 24 60 0
11 30 0
11 35 0
11 41 47 0
12 25 61 0
12 31 0
12 36 0
12 42 48 0
13 26 62 0
13 32 0
13 37 0
13 43 49 0
14 27 63 0
14 33 0
14 38 0
15 28 64 0
15 34 0
15 39 0
16 29 65 0
16 35 0
16 40 0
17 30 66 0
17 36 0
17 41 0
18 31 67 0
18 37 0
18 42 0
19 32 68 0
19 38 0
19 43 0
20 33 69 0
20 39 0
21 34 70 0
21 40 0
22 35 71 0
22 41 0
23 36 72 0
23 42 0
24 37 73 0
24 43 0
25 38 74 0
26 39 75 0
27 40 76 0
28 41 77 0
29 42 78 0
30 43 79 0
